25 80 203
1 6 1
1 7 5
1 12 1
1 13 3
1 14 4
1 23 4
2 3 2
2 9 3
2 11 5
2 13 4
2 16 4
2 17 4
2 20 2
2 22 5
3 19 4
3 24 2
4 7 5
4 8 4
4 9 4
4 10 5
4 11 5
4 18 3
5 6 4
5 9 1
5 10 3
5 13 5
5 21 3
5 22 4
6 13 3
6 17 2
6 18 5
6 19 2
6 20 5
6 23 2
7 14 4
7 15 4
7 18 2
7 22 4
7 23 4
8 10 3
8 13 1
8 14 2
8 20 5
9 11 5
9 13 5
9 21 3
9 22 2
10 12 3
10 13 4
10 15 4
10 23 1
10 24 1
11 21 1
11 23 5
11 24 5
12 13 1
12 18 3
12 20 2
13 15 3
13 17 5
13 19 2
13 20 2
14 16 1
14 17 1
14 21 3
14 23 5
15 16 3
15 17 3
16 18 4
16 25 4
17 19 4
17 24 2
17 25 5
20 21 3
20 22 5
20 23 2
22 23 2
22 25 4
23 24 1
23 25 5
